\Problem name: compact

Minimize
OBJROW: C
Subject To
ord(0,1):  - x(0,1) + x(0,2) >= 7
ord(0,2):  x(0,0) - x(0,2) >= 1
ord(1,1):  x(1,1) - x(1,2) >= 8
ord(1,2):  x(1,0) - x(1,1) >= 10
ord(2,1):  - x(2,1) + x(2,2) >= 3
ord(2,2):  x(2,0) - x(2,2) >= 7
triangle2(0,1,0):  y(0,1,0) + y(1,0,0) = 1
triangle2(0,1,1):  y(0,1,1) + y(1,0,1) = 1
triangle2(0,1,2):  y(0,1,2) + y(1,0,2) = 1
triangle2(0,2,0):  y(0,2,0) + y(2,0,0) = 1
triangle2(0,2,1):  y(0,2,1) + y(2,0,1) = 1
triangle2(0,2,2):  y(0,2,2) + y(2,0,2) = 1
triangle2(1,2,0):  y(1,2,0) + y(2,1,0) = 1
triangle2(1,2,1):  y(1,2,1) + y(2,1,1) = 1
triangle2(1,2,2):  y(1,2,2) + y(2,1,2) = 1
MCLinV(0,1,0):  x(0,0) - v(0,1,0) - x(1,0) = 8
MCLinV(1,0,0):  - x(0,0) - v(1,0,0) + x(1,0) = 4
MCLin1(0,1,0):  u(0,1,0) >= -0
MCLin2(0,1,0):  -43 y(1,0,0) - u(0,1,0) <= -0
MCLin3(0,1,0):  21 y(1,0,0) + v(0,1,0) - u(0,1,0) <= 21
MCLin4(0,1,0):  21 y(1,0,0) - u(0,1,0) >= -0
MCLin5(0,1,0):  -43 y(1,0,0) + v(0,1,0) - u(0,1,0) >= -43
MCLin6(1,0,0):  u(1,0,0) >= -0
MCLin7(1,0,0):  -33 y(0,1,0) - u(1,0,0) <= -0
MCLin8(1,0,0):  31 y(0,1,0) + v(1,0,0) - u(1,0,0) <= 31
MCLin9(1,0,0):  31 y(0,1,0) - u(1,0,0) >= -0
MCLin10(1,0,0):  -33 y(0,1,0) + v(1,0,0) - u(1,0,0) >= -33
MCLinV(0,1,1):  x(0,1) - v(0,1,1) - x(1,1) = 10
MCLinV(1,0,1):  - x(0,1) - v(1,0,1) + x(1,1) = 7
MCLin1(0,1,1):  u(0,1,1) >= -0
MCLin2(0,1,1):  -43 y(1,0,1) - u(0,1,1) <= -0
MCLin3(0,1,1):  21 y(1,0,1) + v(0,1,1) - u(0,1,1) <= 21
MCLin4(0,1,1):  21 y(1,0,1) - u(0,1,1) >= -0
MCLin5(0,1,1):  -43 y(1,0,1) + v(0,1,1) - u(0,1,1) >= -43
MCLin6(1,0,1):  u(1,0,1) >= -0
MCLin7(1,0,1):  -38 y(0,1,1) - u(1,0,1) <= -0
MCLin8(1,0,1):  26 y(0,1,1) + v(1,0,1) - u(1,0,1) <= 26
MCLin9(1,0,1):  26 y(0,1,1) - u(1,0,1) >= -0
MCLin10(1,0,1):  -38 y(0,1,1) + v(1,0,1) - u(1,0,1) >= -38
MCLinV(0,1,2):  x(0,2) - v(0,1,2) - x(1,2) = 8
MCLinV(1,0,2):  - x(0,2) - v(1,0,2) + x(1,2) = 1
MCLin1(0,1,2):  u(0,1,2) >= -0
MCLin2(0,1,2):  -26 y(1,0,2) - u(0,1,2) <= -0
MCLin3(0,1,2):  38 y(1,0,2) + v(0,1,2) - u(0,1,2) <= 38
MCLin4(0,1,2):  38 y(1,0,2) - u(0,1,2) >= -0
MCLin5(0,1,2):  -26 y(1,0,2) + v(0,1,2) - u(0,1,2) >= -26
MCLin6(1,0,2):  u(1,0,2) >= -0
MCLin7(1,0,2):  -47 y(0,1,2) - u(1,0,2) <= -0
MCLin8(1,0,2):  17 y(0,1,2) + v(1,0,2) - u(1,0,2) <= 17
MCLin9(1,0,2):  17 y(0,1,2) - u(1,0,2) >= -0
MCLin10(1,0,2):  -47 y(0,1,2) + v(1,0,2) - u(1,0,2) >= -47
MCLinV(0,2,0):  x(0,0) - v(0,2,0) - x(2,0) = 3
MCLinV(2,0,0):  - x(0,0) - v(2,0,0) + x(2,0) = 4
MCLin1(0,2,0):  u(0,2,0) >= -0
MCLin2(0,2,0):  -43 y(2,0,0) - u(0,2,0) <= -0
MCLin3(0,2,0):  34 y(2,0,0) + v(0,2,0) - u(0,2,0) <= 34
MCLin4(0,2,0):  34 y(2,0,0) - u(0,2,0) >= -0
MCLin5(0,2,0):  -43 y(2,0,0) + v(0,2,0) - u(0,2,0) >= -43
MCLin6(2,0,0):  u(2,0,0) >= -0
MCLin7(2,0,0):  -41 y(0,2,0) - u(2,0,0) <= -0
MCLin8(2,0,0):  36 y(0,2,0) + v(2,0,0) - u(2,0,0) <= 36
MCLin9(2,0,0):  36 y(0,2,0) - u(2,0,0) >= -0
MCLin10(2,0,0):  -41 y(0,2,0) + v(2,0,0) - u(2,0,0) >= -41
MCLinV(0,2,1):  x(0,1) - v(0,2,1) - x(2,1) = 3
MCLinV(2,0,1):  - x(0,1) - v(2,0,1) + x(2,1) = 7
MCLin1(0,2,1):  u(0,2,1) >= -0
MCLin2(0,2,1):  -41 y(2,0,1) - u(0,2,1) <= -0
MCLin3(0,2,1):  36 y(2,0,1) + v(0,2,1) - u(0,2,1) <= 36
MCLin4(0,2,1):  36 y(2,0,1) - u(0,2,1) >= -0
MCLin5(0,2,1):  -41 y(2,0,1) + v(0,2,1) - u(0,2,1) >= -41
MCLin6(2,0,1):  u(2,0,1) >= -0
MCLin7(2,0,1):  -46 y(0,2,1) - u(2,0,1) <= -0
MCLin8(2,0,1):  31 y(0,2,1) + v(2,0,1) - u(2,0,1) <= 31
MCLin9(2,0,1):  31 y(0,2,1) - u(2,0,1) >= -0
MCLin10(2,0,1):  -46 y(0,2,1) + v(2,0,1) - u(2,0,1) >= -46
MCLinV(0,2,2):  x(0,2) - v(0,2,2) - x(2,2) = 7
MCLinV(2,0,2):  - x(0,2) - v(2,0,2) + x(2,2) = 1
MCLin1(0,2,2):  u(0,2,2) >= -0
MCLin2(0,2,2):  -41 y(2,0,2) - u(0,2,2) <= -0
MCLin3(0,2,2):  36 y(2,0,2) + v(0,2,2) - u(0,2,2) <= 36
MCLin4(0,2,2):  36 y(2,0,2) - u(0,2,2) >= -0
MCLin5(0,2,2):  -41 y(2,0,2) + v(0,2,2) - u(0,2,2) >= -41
MCLin6(2,0,2):  u(2,0,2) >= -0
MCLin7(2,0,2):  -44 y(0,2,2) - u(2,0,2) <= -0
MCLin8(2,0,2):  33 y(0,2,2) + v(2,0,2) - u(2,0,2) <= 33
MCLin9(2,0,2):  33 y(0,2,2) - u(2,0,2) >= -0
MCLin10(2,0,2):  -44 y(0,2,2) + v(2,0,2) - u(2,0,2) >= -44
MCLinV(1,2,0):  x(1,0) - v(1,2,0) - x(2,0) = 3
MCLinV(2,1,0):  - x(1,0) - v(2,1,0) + x(2,0) = 8
MCLin1(1,2,0):  u(1,2,0) >= -0
MCLin2(1,2,0):  -33 y(2,1,0) - u(1,2,0) <= -0
MCLin3(1,2,0):  30 y(2,1,0) + v(1,2,0) - u(1,2,0) <= 30
MCLin4(1,2,0):  30 y(2,1,0) - u(1,2,0) >= -0
MCLin5(1,2,0):  -33 y(2,1,0) + v(1,2,0) - u(1,2,0) >= -33
MCLin6(2,1,0):  u(2,1,0) >= -0
MCLin7(2,1,0):  -41 y(1,2,0) - u(2,1,0) <= -0
MCLin8(2,1,0):  22 y(1,2,0) + v(2,1,0) - u(2,1,0) <= 22
MCLin9(2,1,0):  22 y(1,2,0) - u(2,1,0) >= -0
MCLin10(2,1,0):  -41 y(1,2,0) + v(2,1,0) - u(2,1,0) >= -41
MCLinV(1,2,1):  x(1,1) - v(1,2,1) - x(2,1) = 3
MCLinV(2,1,1):  - x(1,1) - v(2,1,1) + x(2,1) = 10
MCLin1(1,2,1):  u(1,2,1) >= -0
MCLin2(1,2,1):  -33 y(2,1,1) - u(1,2,1) <= -0
MCLin3(1,2,1):  30 y(2,1,1) + v(1,2,1) - u(1,2,1) <= 30
MCLin4(1,2,1):  30 y(2,1,1) - u(1,2,1) >= -0
MCLin5(1,2,1):  -33 y(2,1,1) + v(1,2,1) - u(1,2,1) >= -33
MCLin6(2,1,1):  u(2,1,1) >= -0
MCLin7(2,1,1):  -43 y(1,2,1) - u(2,1,1) <= -0
MCLin8(2,1,1):  20 y(1,2,1) + v(2,1,1) - u(2,1,1) <= 20
MCLin9(2,1,1):  20 y(1,2,1) - u(2,1,1) >= -0
MCLin10(2,1,1):  -43 y(1,2,1) + v(2,1,1) - u(2,1,1) >= -43
MCLinV(1,2,2):  x(1,2) - v(1,2,2) - x(2,2) = 7
MCLinV(2,1,2):  - x(1,2) - v(2,1,2) + x(2,2) = 8
MCLin1(1,2,2):  u(1,2,2) >= -0
MCLin2(1,2,2):  -48 y(2,1,2) - u(1,2,2) <= -0
MCLin3(1,2,2):  15 y(2,1,2) + v(1,2,2) - u(1,2,2) <= 15
MCLin4(1,2,2):  15 y(2,1,2) - u(1,2,2) >= -0
MCLin5(1,2,2):  -48 y(2,1,2) + v(1,2,2) - u(1,2,2) >= -48
MCLin6(2,1,2):  u(2,1,2) >= -0
MCLin7(2,1,2):  -30 y(1,2,2) - u(2,1,2) <= -0
MCLin8(2,1,2):  33 y(1,2,2) + v(2,1,2) - u(2,1,2) <= 33
MCLin9(2,1,2):  33 y(1,2,2) - u(2,1,2) >= -0
MCLin10(2,1,2):  -30 y(1,2,2) + v(2,1,2) - u(2,1,2) >= -30
makespan(0):  C - x(0,0) >= 4
makespan(1):  C - x(1,0) >= 8
makespan(2):  C - x(2,0) >= 3
Bounds
 0 <= C <= 51
 8 <= x(0,0) <= 47
 0 <= y(0,1,0) <= 1
 0 <= y(1,0,0) <= 1
 -43 <= v(0,1,0) <= 21
 -33 <= v(1,0,0) <= 31
 -510 <= u(0,1,0)
 -510 <= u(1,0,0)
 0 <= y(0,2,0) <= 1
 0 <= y(2,0,0) <= 1
 -43 <= v(0,2,0) <= 34
 -41 <= v(2,0,0) <= 36
 -510 <= u(0,2,0)
 -510 <= u(2,0,0)
 18 <= x(1,0) <= 43
 0 <= y(1,2,0) <= 1
 0 <= y(2,1,0) <= 1
 -33 <= v(1,2,0) <= 30
 -41 <= v(2,1,0) <= 22
 -510 <= u(1,2,0)
 -510 <= u(2,1,0)
 10 <= x(2,0) <= 48
 0 <= x(0,1) <= 39
 0 <= y(0,1,1) <= 1
 0 <= y(1,0,1) <= 1
 -43 <= v(0,1,1) <= 21
 -38 <= v(1,0,1) <= 26
 -510 <= u(0,1,1)
 -510 <= u(1,0,1)
 0 <= y(0,2,1) <= 1
 0 <= y(2,0,1) <= 1
 -41 <= v(0,2,1) <= 36
 -46 <= v(2,0,1) <= 31
 -510 <= u(0,2,1)
 -510 <= u(2,0,1)
 8 <= x(1,1) <= 33
 0 <= y(1,2,1) <= 1
 0 <= y(2,1,1) <= 1
 -33 <= v(1,2,1) <= 30
 -43 <= v(2,1,1) <= 20
 -510 <= u(1,2,1)
 -510 <= u(2,1,1)
 0 <= x(2,1) <= 38
 7 <= x(0,2) <= 46
 0 <= y(0,1,2) <= 1
 0 <= y(1,0,2) <= 1
 -26 <= v(0,1,2) <= 38
 -47 <= v(1,0,2) <= 17
 -510 <= u(0,1,2)
 -510 <= u(1,0,2)
 0 <= y(0,2,2) <= 1
 0 <= y(2,0,2) <= 1
 -41 <= v(0,2,2) <= 36
 -44 <= v(2,0,2) <= 33
 -510 <= u(0,2,2)
 -510 <= u(2,0,2)
 0 <= x(1,2) <= 25
 0 <= y(1,2,2) <= 1
 0 <= y(2,1,2) <= 1
 -48 <= v(1,2,2) <= 15
 -30 <= v(2,1,2) <= 33
 -510 <= u(1,2,2)
 -510 <= u(2,1,2)
 3 <= x(2,2) <= 41
Integers
C x(0,0) y(0,1,0) y(1,0,0) v(0,1,0) v(1,0,0) u(0,1,0) u(1,0,0) y(0,2,0) y(2,0,0) 
v(0,2,0) v(2,0,0) u(0,2,0) u(2,0,0) x(1,0) y(1,2,0) y(2,1,0) v(1,2,0) v(2,1,0) u(1,2,0) 
u(2,1,0) x(2,0) x(0,1) y(0,1,1) y(1,0,1) v(0,1,1) v(1,0,1) u(0,1,1) u(1,0,1) y(0,2,1) 
y(2,0,1) v(0,2,1) v(2,0,1) u(0,2,1) u(2,0,1) x(1,1) y(1,2,1) y(2,1,1) v(1,2,1) v(2,1,1) 
u(1,2,1) u(2,1,1) x(2,1) x(0,2) y(0,1,2) y(1,0,2) v(0,1,2) v(1,0,2) u(0,1,2) u(1,0,2) 
y(0,2,2) y(2,0,2) v(0,2,2) v(2,0,2) u(0,2,2) u(2,0,2) x(1,2) y(1,2,2) y(2,1,2) v(1,2,2) 
v(2,1,2) u(1,2,2) u(2,1,2) x(2,2) 
End
